c "139182.clq"
p edge 140 544
e 1 5
e 1 6
e 1 9
e 1 24
e 1 25
e 1 27
e 2 5
e 2 6
e 2 7
e 2 8
e 2 9
e 2 11
e 2 12
e 2 16
e 2 21
e 2 22
e 2 27
e 2 29
e 2 51
e 2 64
e 2 67
e 2 81
e 2 113
e 2 126
e 2 137
e 3 5
e 3 6
e 3 7
e 3 8
e 3 10
e 3 11
e 3 31
e 3 33
e 3 43
e 3 50
e 3 60
e 3 62
e 3 63
e 3 68
e 3 71
e 3 82
e 3 84
e 3 93
e 3 96
e 3 97
e 3 101
e 3 113
e 3 131
e 3 134
e 4 5
e 4 8
e 4 17
e 4 19
e 4 39
e 4 56
e 4 74
e 5 6
e 5 7
e 5 9
e 5 10
e 5 11
e 5 13
e 5 18
e 5 22
e 5 23
e 5 24
e 5 29
e 5 34
e 5 38
e 5 42
e 5 44
e 5 47
e 5 48
e 5 53
e 5 60
e 5 66
e 5 67
e 5 68
e 5 75
e 5 93
e 5 95
e 5 96
e 5 98
e 5 106
e 5 112
e 5 124
e 5 125
e 5 127
e 5 131
e 5 137
e 6 7
e 6 8
e 6 9
e 6 10
e 6 12
e 6 13
e 6 14
e 6 16
e 6 17
e 6 23
e 6 24
e 6 26
e 6 28
e 6 29
e 6 36
e 6 38
e 6 40
e 6 42
e 6 43
e 6 47
e 6 50
e 6 51
e 6 54
e 6 55
e 6 58
e 6 62
e 6 69
e 6 74
e 6 78
e 6 96
e 6 98
e 6 104
e 6 111
e 6 114
e 6 115
e 6 116
e 6 117
e 6 118
e 6 123
e 6 126
e 7 11
e 7 21
e 7 26
e 7 32
e 7 37
e 7 43
e 7 46
e 7 54
e 7 80
e 7 82
e 7 132
e 8 12
e 8 14
e 8 22
e 8 26
e 8 41
e 8 49
e 8 68
e 8 71
e 8 72
e 8 90
e 8 118
e 8 126
e 8 128
e 9 10
e 9 12
e 9 13
e 9 15
e 9 16
e 9 17
e 9 25
e 9 32
e 9 34
e 9 42
e 9 44
e 9 46
e 9 48
e 9 57
e 9 59
e 9 61
e 9 85
e 9 107
e 9 117
e 9 119
e 9 121
e 9 132
e 10 15
e 10 19
e 10 21
e 10 29
e 10 37
e 10 49
e 10 55
e 10 79
e 10 96
e 10 99
e 10 116
e 10 122
e 11 14
e 11 20
e 11 40
e 11 66
e 11 69
e 11 76
e 12 13
e 12 14
e 12 17
e 12 18
e 12 19
e 12 20
e 12 27
e 12 28
e 12 30
e 12 31
e 12 37
e 12 39
e 12 44
e 12 46
e 12 48
e 12 49
e 12 51
e 12 52
e 12 54
e 12 55
e 12 57
e 12 74
e 12 77
e 12 78
e 12 90
e 12 112
e 12 123
e 12 131
e 12 138
e 13 15
e 13 16
e 13 18
e 13 20
e 13 21
e 13 23
e 13 24
e 13 25
e 13 26
e 13 34
e 13 38
e 13 51
e 13 56
e 13 63
e 13 65
e 13 66
e 13 72
e 13 78
e 13 80
e 13 83
e 13 87
e 13 89
e 13 99
e 13 104
e 13 109
e 13 112
e 13 122
e 13 124
e 14 15
e 14 34
e 14 45
e 14 82
e 14 87
e 14 120
e 14 122
e 14 132
e 14 140
e 15 18
e 15 20
e 15 40
e 15 69
e 15 79
e 15 95
e 15 130
e 16 19
e 16 30
e 16 35
e 16 91
e 16 92
e 16 116
e 16 130
e 17 27
e 17 33
e 17 39
e 17 50
e 17 60
e 17 64
e 17 69
e 17 76
e 17 80
e 17 87
e 17 94
e 17 107
e 17 119
e 17 133
e 17 134
e 17 135
e 17 136
e 17 140
e 18 31
e 18 33
e 18 58
e 18 65
e 18 75
e 18 76
e 18 83
e 18 101
e 18 105
e 18 116
e 19 28
e 19 35
e 19 87
e 19 118
e 19 127
e 19 130
e 20 22
e 20 30
e 20 41
e 20 44
e 20 62
e 20 74
e 20 94
e 20 125
e 21 23
e 21 25
e 21 35
e 21 36
e 21 56
e 21 76
e 21 79
e 21 97
e 21 106
e 21 108
e 21 140
e 22 33
e 22 73
e 22 102
e 22 117
e 23 30
e 23 45
e 23 47
e 23 57
e 23 73
e 23 92
e 23 97
e 23 125
e 23 136
e 24 36
e 24 100
e 25 32
e 25 40
e 25 45
e 25 90
e 25 92
e 25 107
e 25 136
e 26 28
e 26 37
e 26 56
e 26 78
e 26 84
e 27 68
e 27 89
e 27 110
e 27 139
e 28 31
e 28 32
e 28 35
e 28 42
e 28 52
e 28 67
e 28 89
e 28 93
e 28 95
e 28 121
e 28 122
e 29 82
e 29 124
e 30 55
e 30 70
e 30 79
e 30 115
e 31 47
e 31 61
e 31 62
e 31 73
e 31 88
e 31 111
e 31 124
e 32 41
e 32 65
e 32 94
e 33 36
e 33 59
e 33 120
e 33 139
e 34 38
e 34 39
e 34 52
e 34 53
e 34 61
e 34 86
e 34 108
e 34 118
e 34 123
e 34 127
e 35 41
e 35 114
e 36 49
e 36 73
e 36 98
e 36 103
e 36 107
e 37 77
e 37 85
e 37 123
e 38 43
e 38 53
e 38 71
e 38 86
e 38 88
e 39 45
e 39 86
e 39 101
e 39 139
e 40 72
e 40 102
e 40 113
e 40 127
e 41 46
e 41 57
e 41 75
e 41 105
e 42 61
e 42 77
e 42 105
e 42 110
e 43 48
e 43 64
e 43 81
e 43 100
e 43 103
e 43 121
e 44 98
e 45 63
e 45 84
e 45 91
e 45 105
e 46 52
e 46 93
e 47 59
e 47 70
e 47 88
e 47 94
e 48 54
e 48 66
e 48 72
e 48 109
e 48 119
e 49 50
e 49 53
e 49 59
e 49 67
e 49 95
e 49 115
e 49 128
e 50 81
e 50 109
e 51 81
e 51 86
e 51 135
e 52 64
e 52 65
e 52 88
e 52 99
e 52 103
e 53 106
e 54 58
e 54 120
e 55 85
e 55 135
e 56 58
e 56 100
e 56 108
e 56 109
e 56 135
e 57 60
e 57 63
e 57 83
e 58 70
e 61 71
e 61 106
e 61 114
e 61 126
e 63 100
e 63 101
e 63 108
e 64 129
e 64 136
e 65 70
e 65 75
e 65 117
e 66 85
e 69 84
e 70 83
e 71 102
e 71 104
e 71 115
e 71 133
e 72 91
e 72 110
e 72 130
e 72 132
e 73 133
e 73 138
e 74 77
e 74 97
e 74 111
e 75 89
e 75 138
e 76 91
e 76 121
e 77 92
e 77 114
e 78 110
e 79 80
e 79 113
e 81 120
e 84 111
e 85 103
e 85 134
e 85 137
e 87 90
e 87 129
e 92 104
e 94 99
e 94 137
e 97 102
e 98 139
e 99 131
e 101 128
e 106 125
e 111 112
e 112 119
e 112 138
e 113 134
e 115 133
e 118 129
e 123 129
e 127 128
e 135 140
